Maximize
	+ 3 x1 - 1 x2 + 6 x3 - 3 x4 
Maximize
	- 2 x1 + 4 x2 - 2 x3 
Maximize
	- 4 x1 + 1 x3 
Subject To
	- 2 x1 + 1 x2 - 4 x4 <= 10
Bounds
	0 <= x1 <= 4
	0 <= x2 <= 4
	0 <= x3 <= 4
	0 <= x4 <= 4
Integers
	x1 x2 x3 x4 
End